bacp/03/params/inst-583-1-960833342.param
language Essence 1.3
$ generated by bacp-gen.pl with seed 960833342
$ edge probability 0.0743
$ course loads in range 2..6
letting n_courses be 138
letting n_periods be 27
letting load_per_period_lb be 8
letting load_per_period_ub be 45
letting courses_per_period_lb be 5
letting courses_per_period_ub be 9
letting course_load be function(
1 --> 5,
2 --> 6,
3 --> 3,
4 --> 2,
5 --> 4,
6 --> 5,
7 --> 5,
8 --> 2,
9 --> 2,
10 --> 4,
11 --> 5,
12 --> 3,
13 --> 4,
14 --> 6,
15 --> 3,
16 --> 4,
17 --> 5,
18 --> 2,
19 --> 2,
20 --> 6,
21 --> 3,
22 --> 2,
23 --> 4,
24 --> 5,
25 --> 3,
26 --> 5,
27 --> 4,
28 --> 5,
29 --> 2,
30 --> 6,
31 --> 5,
32 --> 2,
33 --> 5,
34 --> 3,
35 --> 6,
36 --> 3,
37 --> 4,
38 --> 6,
39 --> 5,
40 --> 6,
41 --> 3,
42 --> 3,
43 --> 4,
44 --> 4,
45 --> 2,
46 --> 5,
47 --> 3,
48 --> 2,
49 --> 3,
50 --> 3,
51 --> 3,
52 --> 3,
53 --> 2,
54 --> 2,
55 --> 5,
56 --> 6,
57 --> 6,
58 --> 5,
59 --> 3,
60 --> 4,
61 --> 5,
62 --> 5,
63 --> 3,
64 --> 5,
65 --> 6,
66 --> 5,
67 --> 2,
68 --> 4,
69 --> 2,
70 --> 5,
71 --> 2,
72 --> 5,
73 --> 3,
74 --> 3,
75 --> 4,
76 --> 6,
77 --> 3,
78 --> 2,
79 --> 4,
80 --> 4,
81 --> 2,
82 --> 3,
83 --> 4,
84 --> 3,
85 --> 6,
86 --> 3,
87 --> 3,
88 --> 5,
89 --> 3,
90 --> 3,
91 --> 5,
92 --> 6,
93 --> 2,
94 --> 4,
95 --> 4,
96 --> 3,
97 --> 3,
98 --> 3,
99 --> 4,
100 --> 6,
101 --> 5,
102 --> 2,
103 --> 4,
104 --> 3,
105 --> 5,
106 --> 4,
107 --> 2,
108 --> 5,
109 --> 3,
110 --> 2,
111 --> 5,
112 --> 2,
113 --> 2,
114 --> 4,
115 --> 2,
116 --> 2,
117 --> 2,
118 --> 3,
119 --> 4,
120 --> 5,
121 --> 2,
122 --> 4,
123 --> 5,
124 --> 2,
125 --> 2,
126 --> 5,
127 --> 3,
128 --> 4,
129 --> 4,
130 --> 2,
131 --> 3,
132 --> 4,
133 --> 4,
134 --> 3,
135 --> 3,
136 --> 2,
137 --> 4,
138 --> 4
)
letting prerequisite be relation (
(14,39),
(31,40),
(8,41),
(24,42),
(23,43),
(1,44),
(4,45),
(25,46),
(34,47),
(36,48),
(4,49),
(20,50),
(34,51),
(31,52),
(30,53),
(38,54),
(16,55),
(35,56),
(22,57),
(9,58),
(36,59),
(8,60),
(13,61),
(4,62),
(30,63),
(27,64),
(18,65),
(23,66),
(21,67),
(38,68),
(17,69),
(14,70),
(12,71),
(3,72),
(4,73),
(8,74),
(27,75),
(11,76),
(16,77),
(34,78),
(16,79),
(16,80),
(36,81),
(28,82),
(16,83),
(18,84),
(35,85),
(24,86),
(26,87),
(13,88),
(10,89),
(8,90),
(29,91),
(27,92),
(32,93),
(8,94),
(9,95),
(5,96),
(15,97),
(24,98),
(28,99),
(12,100),
(21,101),
(8,102),
(18,103),
(5,104),
(35,105),
(10,106),
(8,107),
(28,108),
(12,109),
(21,110),
(19,111),
(28,112),
(6,113),
(56,114),
(47,115),
(72,116),
(55,117),
(107,118),
(95,119),
(77,120),
(100,121),
(83,122),
(54,123),
(68,124),
(52,125),
(85,126),
(59,127),
(73,128),
(94,129),
(101,130),
(71,131),
(87,132),
(58,133),
(64,134),
(62,135),
(113,136),
(69,137),
(79,138),
(29,106),
(13,110),
(67,130),
(96,132),
(43,137),
(54,132),
(37,69),
(96,124),
(67,134),
(99,127),
(48,135),
(84,131),
(7,68),
(93,137),
(42,128),
(44,126),
(4,98),
(19,94),
(18,108),
(4,113),
(91,126),
(43,121),
(50,133),
(63,126),
(15,48),
(100,122),
(4,66),
(9,68),
(19,92),
(26,64),
(57,136),
(52,130),
(48,128),
(44,135),
(16,84),
(58,114),
(13,87),
(2,99),
(17,91),
(1,80),
(53,137),
(36,45),
(65,134),
(22,89),
(18,43),
(97,133),
(62,129),
(46,121),
(37,83),
(96,133),
(6,82),
(10,105),
(47,117),
(36,72),
(70,123),
(18,54),
(31,89),
(30,110),
(22,107),
(65,130),
(95,124),
(82,133),
(10,65),
(23,39),
(27,113),
(10,53),
(67,125),
(68,126),
(75,124),
(36,78),
(97,114),
(10,51),
(37,57),
(71,116),
(5,62),
(58,131),
(96,120),
(18,73),
(2,42),
(28,39),
(35,43),
(23,71),
(55,131),
(11,102),
(54,128),
(21,69),
(62,119),
(56,121),
(70,132),
(21,71),
(76,131),
(98,136),
(105,134),
(55,114),
(31,78),
(56,116),
(1,69),
(89,127),
(70,126),
(84,123),
(24,100),
(1,112),
(1,113),
(102,117),
(11,40),
(19,47),
(35,52),
(11,75),
(99,123),
(16,69),
(38,104),
(92,131),
(34,79),
(83,123),
(74,121),
(32,75),
(48,123),
(51,118),
(34,96),
(88,137),
(34,68),
(29,79),
(45,120),
(35,39),
(111,129),
(16,76),
(93,124),
(13,47),
(22,74),
(49,115),
(70,133),
(69,133),
(56,120),
(85,124),
(94,114),
(62,121),
(83,117),
(30,103),
(113,119),
(58,117),
(73,124),
(58,127),
(49,123),
(25,76),
(109,136),
(16,87),
(84,114),
(25,51),
(66,120),
(44,127),
(11,66),
(30,48),
(7,99),
(4,110),
(32,66),
(13,58),
(12,43),
(44,117),
(60,120),
(24,63),
(77,115),
(61,132),
(43,134),
(3,87),
(6,104),
(107,134),
(37,65),
(26,67),
(97,127),
(30,78),
(69,118),
(65,125),
(50,131),
(33,79),
(20,44),
(73,120),
(60,127),
(73,127),
(8,49),
(62,133),
(44,129),
(26,66),
(55,124),
(56,130),
(11,61),
(18,47),
(13,82),
(108,126),
(36,52),
(79,130),
(29,68),
(15,94),
(111,117),
(14,52),
(41,122),
(89,124),
(10,101),
(15,98),
(8,80),
(31,108),
(32,109),
(25,42),
(6,106),
(53,121),
(25,74),
(60,133),
(71,123),
(110,120),
(6,85),
(6,81),
(29,64),
(112,128),
(16,106),
(75,132),
(104,129),
(18,61),
(100,126),
(36,83),
(1,73),
(98,130),
(102,138),
(99,126),
(37,48),
(64,123),
(42,127),
(50,129),
(24,39),
(64,117),
(2,103),
(11,110),
(50,136),
(31,67),
(17,95),
(33,54),
(16,61),
(99,116),
(56,126),
(85,136),
(5,50),
(39,118),
(47,121),
(18,107),
(63,123),
(3,47),
(44,123),
(67,115),
(30,65),
(25,53),
(19,109),
(112,134),
(36,99)
)

