bacp/param_dec/inst-583-1-960833342.eprime-param
language ESSENCE' 1.0

letting n_courses be 138
letting n_periods be 27
letting prerequisite_RelationAsSet_Explicit_1 be
        [1, 1, 1, 1, 1, 1, 2, 2, 2, 3, 3, 3, 4, 4, 4, 4, 4, 4, 4, 4, 5, 5, 5, 5, 6, 6, 6, 6, 6, 6, 7, 7, 8, 8, 8, 8, 8,
         8, 8, 8, 8, 9, 9, 9, 10, 10, 10, 10, 10, 10, 10, 11, 11, 11, 11, 11, 11, 11, 12, 12, 12, 12, 13, 13, 13, 13,
         13, 13, 13, 14, 14, 14, 15, 15, 15, 15, 16, 16, 16, 16, 16, 16, 16, 16, 16, 16, 16, 17, 17, 17, 18, 18, 18, 18,
         18, 18, 18, 18, 18, 18, 19, 19, 19, 19, 19, 20, 20, 21, 21, 21, 21, 21, 22, 22, 22, 22, 23, 23, 23, 23, 24, 24,
         24, 24, 24, 24, 25, 25, 25, 25, 25, 25, 26, 26, 26, 26, 27, 27, 27, 27, 28, 28, 28, 28, 28, 29, 29, 29, 29, 29,
         30, 30, 30, 30, 30, 30, 30, 31, 31, 31, 31, 31, 31, 32, 32, 32, 32, 33, 33, 34, 34, 34, 34, 34, 34, 35, 35, 35,
         35, 35, 35, 36, 36, 36, 36, 36, 36, 36, 36, 36, 37, 37, 37, 37, 37, 38, 38, 38, 39, 41, 42, 42, 43, 43, 43, 44,
         44, 44, 44, 44, 44, 45, 46, 47, 47, 47, 48, 48, 48, 49, 49, 50, 50, 50, 50, 51, 52, 52, 53, 53, 54, 54, 54, 55,
         55, 55, 55, 56, 56, 56, 56, 56, 56, 57, 58, 58, 58, 58, 58, 59, 60, 60, 60, 61, 62, 62, 62, 62, 62, 63, 63, 64,
         64, 64, 65, 65, 65, 66, 67, 67, 67, 67, 68, 68, 69, 69, 69, 70, 70, 70, 70, 71, 71, 71, 72, 73, 73, 73, 73, 74,
         75, 75, 76, 77, 77, 79, 79, 82, 83, 83, 83, 84, 84, 84, 85, 85, 85, 87, 88, 89, 89, 91, 92, 93, 93, 94, 94, 95,
         95, 96, 96, 96, 96, 97, 97, 97, 98, 98, 99, 99, 99, 99, 100, 100, 100, 101, 102, 102, 104, 105, 107, 107, 108,
         109, 110, 111, 111, 112, 112, 113, 113;
             int(1..351)]
letting prerequisite_RelationAsSet_Explicit_2 be
        [44, 69, 73, 80, 112, 113, 42, 99, 103, 47, 72, 87, 45, 49, 62, 66, 73, 98, 110, 113, 50, 62, 96, 104, 81, 82,
         85, 104, 106, 113, 68, 99, 41, 49, 60, 74, 80, 90, 94, 102, 107, 58, 68, 95, 51, 53, 65, 89, 101, 105, 106, 40,
         61, 66, 75, 76, 102, 110, 43, 71, 100, 109, 47, 58, 61, 82, 87, 88, 110, 39, 52, 70, 48, 94, 97, 98, 55, 61,
         69, 76, 77, 79, 80, 83, 84, 87, 106, 69, 91, 95, 43, 47, 54, 61, 65, 73, 84, 103, 107, 108, 47, 92, 94, 109,
         111, 44, 50, 67, 69, 71, 101, 110, 57, 74, 89, 107, 39, 43, 66, 71, 39, 42, 63, 86, 98, 100, 42, 46, 51, 53,
         74, 76, 64, 66, 67, 87, 64, 75, 92, 113, 39, 82, 99, 108, 112, 64, 68, 79, 91, 106, 48, 53, 63, 65, 78, 103,
         110, 40, 52, 67, 78, 89, 108, 66, 75, 93, 109, 54, 79, 47, 51, 68, 78, 79, 96, 39, 43, 52, 56, 85, 105, 45, 48,
         52, 59, 72, 78, 81, 83, 99, 48, 57, 65, 69, 83, 54, 68, 104, 118, 122, 127, 128, 121, 134, 137, 117, 123, 126,
         127, 129, 135, 120, 121, 115, 117, 121, 123, 128, 135, 115, 123, 129, 131, 133, 136, 118, 125, 130, 121, 137,
         123, 128, 132, 114, 117, 124, 131, 114, 116, 120, 121, 126, 130, 136, 114, 117, 127, 131, 133, 127, 120, 127,
         133, 132, 119, 121, 129, 133, 135, 123, 126, 117, 123, 134, 125, 130, 134, 120, 115, 125, 130, 134, 124, 126,
         118, 133, 137, 123, 126, 132, 133, 116, 123, 131, 116, 120, 124, 127, 128, 121, 124, 132, 131, 115, 120, 130,
         138, 133, 117, 122, 123, 114, 123, 131, 124, 126, 136, 132, 137, 124, 127, 126, 131, 124, 137, 114, 129, 119,
         124, 120, 124, 132, 133, 114, 127, 133, 130, 136, 116, 123, 126, 127, 121, 122, 126, 130, 117, 138, 129, 134,
         118, 134, 126, 136, 120, 117, 129, 128, 134, 119, 136;
             int(1..351)]
letting course_load_Function1D be
        [5, 6, 3, 2, 4, 5, 5, 2, 2, 4, 5, 3, 4, 6, 3, 4, 5, 2, 2, 6, 3, 2, 4, 5, 3, 5, 4, 5, 2, 6, 5, 2, 5, 3, 6, 3, 4,
         6, 5, 6, 3, 3, 4, 4, 2, 5, 3, 2, 3, 3, 3, 3, 2, 2, 5, 6, 6, 5, 3, 4, 5, 5, 3, 5, 6, 5, 2, 4, 2, 5, 2, 5, 3, 3,
         4, 6, 3, 2, 4, 4, 2, 3, 4, 3, 6, 3, 3, 5, 3, 3, 5, 6, 2, 4, 4, 3, 3, 3, 4, 6, 5, 2, 4, 3, 5, 4, 2, 5, 3, 2, 5,
         2, 2, 4, 2, 2, 2, 3, 4, 5, 2, 4, 5, 2, 2, 5, 3, 4, 4, 2, 3, 4, 4, 3, 3, 2, 4, 4;
             int(1..138)]
letting load_per_period_ub be 45
letting load_per_period_lb be 8
letting courses_per_period_ub be 9
letting courses_per_period_lb be 5
letting fin1 be 351
letting fin2 be 138
letting fin3 be 6
